unsat
(:max-memory         18.15
 :memory             18.05
 :nlsat-conflicts    6
 :nlsat-decisions    1
 :nlsat-propagations 20
 :nlsat-stages       5
 :num-allocs         42750
 :rlimit-count       5637
 :time               0.00
 :total-time         0.01)
